column=6;
row=6;
max=4;
left=[0, 0, 3, 1, 2, 1];
right=[0, 0, 0, 0, 0, 3];
top=[0, 2, 1, 0, 4, 0];
bottom=[0, 0, 0, 0, 3, 0];
Board=[|4,0,0,0,0,0|0,0,0,1,0,0|0,0,3,0,4,1|0,0,4,0,2,0|0,3,0,0,0,0|1,4,0,0,0,0|]